NAME          ClpDefau
ROWS
 N  OBJROW
 L  R_172_0
 L  R_172_1
 L  R_172_2
 L  R_172_3
 L  R_172_4
 L  R_172_5
 L  R_172_6
 L  R_172_7
 L  R_172_8
 L  R_172_9
 L  R_172_10
 L  R_172_11
 L  R_172_12
 L  R_172_13
 L  R_172_14
 L  R_172_15
COLUMNS
    x_0       OBJROW     -8.           R_172_0   4.          
    x_0       R_172_1   10.            R_172_2   7.          
    x_0       R_172_3   9.             R_172_5   8.          
    x_0       R_172_6   1.             R_172_8   6.          
    x_0       R_172_10  9.             R_172_11  3.          
    x_0       R_172_12  1.             R_172_13  3.          
    x_0       R_172_14  9.             R_172_15  9.          
    x_1       OBJROW     -12.          R_172_0   3.          
    x_1       R_172_2   7.             R_172_3   6.          
    x_1       R_172_4   6.             R_172_5   8.          
    x_1       R_172_6   7.             R_172_7   8.          
    x_1       R_172_8   4.             R_172_9   8.          
    x_1       R_172_10  6.             R_172_11  8.          
    x_1       R_172_13  10.            R_172_14  9.          
    x_1       R_172_15  8.          
    x_2       OBJROW     -11.          R_172_0   6.          
    x_2       R_172_4   8.             R_172_5   9.          
    x_2       R_172_6   9.             R_172_7   10.         
    x_2       R_172_8   4.             R_172_9   6.          
    x_2       R_172_11  2.             R_172_12  6.          
    x_2       R_172_13  4.             R_172_15  10.         
    x_3       OBJROW     -47.          R_172_0   5.          
    x_3       R_172_1   2.             R_172_2   3.          
    x_3       R_172_4   4.             R_172_6   1.          
    x_3       R_172_7   6.             R_172_8   1.          
    x_3       R_172_9   2.             R_172_10  1.          
    x_3       R_172_11  3.             R_172_13  3.          
    x_3       R_172_14  1.             R_172_15  1.          
    x_4       OBJROW     -22.          R_172_0   4.          
    x_4       R_172_1   1.             R_172_2   10.         
    x_4       R_172_3   2.             R_172_4   8.          
    x_4       R_172_5   8.             R_172_6   10.         
    x_4       R_172_7   5.             R_172_8   10.         
    x_4       R_172_9   8.             R_172_11  6.          
    x_4       R_172_13  3.             R_172_14  7.          
    x_4       R_172_15  6.          
    x_5       OBJROW     -95.          R_172_0   6.          
    x_5       R_172_1   10.            R_172_3   9.          
    x_5       R_172_5   5.             R_172_6   3.          
    x_5       R_172_7   8.             R_172_8   9.          
    x_5       R_172_10  1.             R_172_12  8.          
    x_5       R_172_13  2.             R_172_14  10.         
    x_5       R_172_15  10.         
    x_6       OBJROW     -86.          R_172_0   5.          
    x_6       R_172_1   5.             R_172_2   1.          
    x_6       R_172_3   7.             R_172_4   2.          
    x_6       R_172_5   2.             R_172_6   2.          
    x_6       R_172_7   4.             R_172_8   1.          
    x_6       R_172_9   8.             R_172_10  9.          
    x_6       R_172_11  4.             R_172_12  4.          
    x_6       R_172_13  7.             R_172_14  1.          
    x_6       R_172_15  1.          
    x_7       OBJROW     -40.          R_172_2   2.          
    x_7       R_172_3   8.             R_172_4   9.          
    x_7       R_172_6   6.             R_172_7   6.          
    x_7       R_172_8   7.             R_172_9   5.          
    x_7       R_172_10  1.             R_172_12  8.          
    x_7       R_172_13  10.            R_172_14  1.          
    x_7       R_172_15  6.          
RHS
    RHS       R_172_0   36.            R_172_1   33.         
    RHS       R_172_2   35.            R_172_3   39.         
    RHS       R_172_4   35.            R_172_5   33.         
    RHS       R_172_6   41.            R_172_7   37.         
    RHS       R_172_8   38.            R_172_9   39.         
    RHS       R_172_10  34.            R_172_11  37.         
    RHS       R_172_12  38.            R_172_13  33.         
    RHS       R_172_14  36.            R_172_15  33.         
BOUNDS
 UI BOUND     x_0       100.        
 UI BOUND     x_1       100.        
 UI BOUND     x_2       100.        
 UI BOUND     x_3       100.        
 UI BOUND     x_4       100.        
 UI BOUND     x_5       100.        
 UI BOUND     x_6       100.        
 UI BOUND     x_7       100.        
ENDATA
